c x : [2, 3, 4, 5, 6, 7, 8, 9, 10, 11]
p cnf 543 1686
-1 0
-2 -3 -4 -5 -6 -7 -8 -9 -10 -11 0
-12 0
-13 0
14 0
-15 0
-12 10 16 0
12 -16 0
-10 -16 0
-13 10 17 0
13 -17 0
-10 -17 0
-14 -10 18 0
14 -18 0
10 -18 0
-15 -10 19 0
15 -19 0
10 -19 0
16 18 -20 0
-16 20 0
-18 20 0
17 19 -21 0
-17 21 0
-19 21 0
-12 -6 22 0
12 -22 0
6 -22 0
-13 -6 23 0
13 -23 0
6 -23 0
-14 6 24 0
14 -24 0
-6 -24 0
-15 6 25 0
15 -25 0
-6 -25 0
22 24 -26 0
-22 26 0
-24 26 0
23 25 -27 0
-23 27 0
-25 27 0
20 26 -28 0
-20 28 0
-26 28 0
21 27 -29 0
-21 29 0
-27 29 0
-12 11 30 0
12 -30 0
-11 -30 0
-13 11 31 0
13 -31 0
-11 -31 0
-14 -11 32 0
14 -32 0
11 -32 0
-15 -11 33 0
15 -33 0
11 -33 0
30 32 -34 0
-30 34 0
-32 34 0
31 33 -35 0
-31 35 0
-33 35 0
28 34 -36 0
-28 36 0
-34 36 0
29 35 -37 0
-29 37 0
-35 37 0
-12 -7 38 0
12 -38 0
7 -38 0
-13 -7 39 0
13 -39 0
7 -39 0
-14 7 40 0
14 -40 0
-7 -40 0
-15 7 41 0
15 -41 0
-7 -41 0
38 40 -42 0
-38 42 0
-40 42 0
39 41 -43 0
-39 43 0
-41 43 0
36 42 -44 0
-36 44 0
-42 44 0
37 43 -45 0
-37 45 0
-43 45 0
-12 4 46 0
12 -46 0
-4 -46 0
-13 4 47 0
13 -47 0
-4 -47 0
-14 -4 48 0
14 -48 0
4 -48 0
-15 -4 49 0
15 -49 0
4 -49 0
46 48 -50 0
-46 50 0
-48 50 0
47 49 -51 0
-47 51 0
-49 51 0
44 50 -52 0
-44 52 0
-50 52 0
45 51 -53 0
-45 53 0
-51 53 0
-52 12 -54 0
52 54 0
-12 54 0
53 -13 55 0
-53 -55 0
13 -55 0
53 13 -56 0
-53 -13 -56 0
53 -13 56 0
-53 13 56 0
56 -54 57 0
-56 -57 0
54 -57 0
55 57 -1 0
-55 1 0
-57 1 0
-12 7 58 0
12 -58 0
-7 -58 0
-13 7 59 0
13 -59 0
-7 -59 0
-14 -7 60 0
14 -60 0
7 -60 0
-15 -7 61 0
15 -61 0
7 -61 0
58 60 -62 0
-58 62 0
-60 62 0
59 61 -63 0
-59 63 0
-61 63 0
-12 9 64 0
12 -64 0
-9 -64 0
-13 9 65 0
13 -65 0
-9 -65 0
-14 -9 66 0
14 -66 0
9 -66 0
-15 -9 67 0
15 -67 0
9 -67 0
64 66 -68 0
-64 68 0
-66 68 0
65 67 -69 0
-65 69 0
-67 69 0
62 68 -70 0
-62 70 0
-68 70 0
63 69 -71 0
-63 71 0
-69 71 0
-70 12 -72 0
70 72 0
-12 72 0
71 -13 73 0
-71 -73 0
13 -73 0
71 13 -74 0
-71 -13 -74 0
71 -13 74 0
-71 13 74 0
74 -72 75 0
-74 -75 0
72 -75 0
73 75 -1 0
-73 1 0
-75 1 0
-12 9 76 0
12 -76 0
-9 -76 0
-13 9 77 0
13 -77 0
-9 -77 0
-14 -9 78 0
14 -78 0
9 -78 0
-15 -9 79 0
15 -79 0
9 -79 0
76 78 -80 0
-76 80 0
-78 80 0
77 79 -81 0
-77 81 0
-79 81 0
-12 5 82 0
12 -82 0
-5 -82 0
-13 5 83 0
13 -83 0
-5 -83 0
-14 -5 84 0
14 -84 0
5 -84 0
-15 -5 85 0
15 -85 0
5 -85 0
82 84 -86 0
-82 86 0
-84 86 0
83 85 -87 0
-83 87 0
-85 87 0
80 86 -88 0
-80 88 0
-86 88 0
81 87 -89 0
-81 89 0
-87 89 0
-88 12 -90 0
88 90 0
-12 90 0
89 -13 91 0
-89 -91 0
13 -91 0
89 13 -92 0
-89 -13 -92 0
89 -13 92 0
-89 13 92 0
92 -90 93 0
-92 -93 0
90 -93 0
91 93 -1 0
-91 1 0
-93 1 0
-12 -11 94 0
12 -94 0
11 -94 0
-13 -11 95 0
13 -95 0
11 -95 0
-14 11 96 0
14 -96 0
-11 -96 0
-15 11 97 0
15 -97 0
-11 -97 0
94 96 -98 0
-94 98 0
-96 98 0
95 97 -99 0
-95 99 0
-97 99 0
-12 6 100 0
12 -100 0
-6 -100 0
-13 6 101 0
13 -101 0
-6 -101 0
-14 -6 102 0
14 -102 0
6 -102 0
-15 -6 103 0
15 -103 0
6 -103 0
100 102 -104 0
-100 104 0
-102 104 0
101 103 -105 0
-101 105 0
-103 105 0
98 104 -106 0
-98 106 0
-104 106 0
99 105 -107 0
-99 107 0
-105 107 0
-106 12 -108 0
106 108 0
-12 108 0
107 -13 109 0
-107 -109 0
13 -109 0
107 13 -110 0
-107 -13 -110 0
107 -13 110 0
-107 13 110 0
110 -108 111 0
-110 -111 0
108 -111 0
109 111 -1 0
-109 1 0
-111 1 0
-12 -10 112 0
12 -112 0
10 -112 0
-13 -10 113 0
13 -113 0
10 -113 0
-14 10 114 0
14 -114 0
-10 -114 0
-15 10 115 0
15 -115 0
-10 -115 0
112 114 -116 0
-112 116 0
-114 116 0
113 115 -117 0
-113 117 0
-115 117 0
-12 9 118 0
12 -118 0
-9 -118 0
-13 9 119 0
13 -119 0
-9 -119 0
-14 -9 120 0
14 -120 0
9 -120 0
-15 -9 121 0
15 -121 0
9 -121 0
118 120 -122 0
-118 122 0
-120 122 0
119 121 -123 0
-119 123 0
-121 123 0
116 122 -124 0
-116 124 0
-122 124 0
117 123 -125 0
-117 125 0
-123 125 0
-124 12 -126 0
124 126 0
-12 126 0
125 -13 127 0
-125 -127 0
13 -127 0
125 13 -128 0
-125 -13 -128 0
125 -13 128 0
-125 13 128 0
128 -126 129 0
-128 -129 0
126 -129 0
127 129 -1 0
-127 1 0
-129 1 0
-12 -10 130 0
12 -130 0
10 -130 0
-13 -10 131 0
13 -131 0
10 -131 0
-14 10 132 0
14 -132 0
-10 -132 0
-15 10 133 0
15 -133 0
-10 -133 0
130 132 -134 0
-130 134 0
-132 134 0
131 133 -135 0
-131 135 0
-133 135 0
-12 -4 136 0
12 -136 0
4 -136 0
-13 -4 137 0
13 -137 0
4 -137 0
-14 4 138 0
14 -138 0
-4 -138 0
-15 4 139 0
15 -139 0
-4 -139 0
136 138 -140 0
-136 140 0
-138 140 0
137 139 -141 0
-137 141 0
-139 141 0
134 140 -142 0
-134 142 0
-140 142 0
135 141 -143 0
-135 143 0
-141 143 0
-142 12 -144 0
142 144 0
-12 144 0
143 -13 145 0
-143 -145 0
13 -145 0
143 13 -146 0
-143 -13 -146 0
143 -13 146 0
-143 13 146 0
146 -144 147 0
-146 -147 0
144 -147 0
145 147 -1 0
-145 1 0
-147 1 0
-12 -3 148 0
12 -148 0
3 -148 0
-13 -3 149 0
13 -149 0
3 -149 0
-14 3 150 0
14 -150 0
-3 -150 0
-15 3 151 0
15 -151 0
-3 -151 0
148 150 -152 0
-148 152 0
-150 152 0
149 151 -153 0
-149 153 0
-151 153 0
-12 6 154 0
12 -154 0
-6 -154 0
-13 6 155 0
13 -155 0
-6 -155 0
-14 -6 156 0
14 -156 0
6 -156 0
-15 -6 157 0
15 -157 0
6 -157 0
154 156 -158 0
-154 158 0
-156 158 0
155 157 -159 0
-155 159 0
-157 159 0
152 158 -160 0
-152 160 0
-158 160 0
153 159 -161 0
-153 161 0
-159 161 0
-160 12 -162 0
160 162 0
-12 162 0
161 -13 163 0
-161 -163 0
13 -163 0
161 13 -164 0
-161 -13 -164 0
161 -13 164 0
-161 13 164 0
164 -162 165 0
-164 -165 0
162 -165 0
163 165 -1 0
-163 1 0
-165 1 0
-12 7 166 0
12 -166 0
-7 -166 0
-13 7 167 0
13 -167 0
-7 -167 0
-14 -7 168 0
14 -168 0
7 -168 0
-15 -7 169 0
15 -169 0
7 -169 0
166 168 -170 0
-166 170 0
-168 170 0
167 169 -171 0
-167 171 0
-169 171 0
-12 5 172 0
12 -172 0
-5 -172 0
-13 5 173 0
13 -173 0
-5 -173 0
-14 -5 174 0
14 -174 0
5 -174 0
-15 -5 175 0
15 -175 0
5 -175 0
172 174 -176 0
-172 176 0
-174 176 0
173 175 -177 0
-173 177 0
-175 177 0
170 176 -178 0
-170 178 0
-176 178 0
171 177 -179 0
-171 179 0
-177 179 0
-178 12 -180 0
178 180 0
-12 180 0
179 -13 181 0
-179 -181 0
13 -181 0
179 13 -182 0
-179 -13 -182 0
179 -13 182 0
-179 13 182 0
182 -180 183 0
-182 -183 0
180 -183 0
181 183 -1 0
-181 1 0
-183 1 0
-12 -3 184 0
12 -184 0
3 -184 0
-13 -3 185 0
13 -185 0
3 -185 0
-14 3 186 0
14 -186 0
-3 -186 0
-15 3 187 0
15 -187 0
-3 -187 0
184 186 -188 0
-184 188 0
-186 188 0
185 187 -189 0
-185 189 0
-187 189 0
-12 -2 190 0
12 -190 0
2 -190 0
-13 -2 191 0
13 -191 0
2 -191 0
-14 2 192 0
14 -192 0
-2 -192 0
-15 2 193 0
15 -193 0
-2 -193 0
190 192 -194 0
-190 194 0
-192 194 0
191 193 -195 0
-191 195 0
-193 195 0
188 194 -196 0
-188 196 0
-194 196 0
189 195 -197 0
-189 197 0
-195 197 0
-196 12 -198 0
196 198 0
-12 198 0
197 -13 199 0
-197 -199 0
13 -199 0
197 13 -200 0
-197 -13 -200 0
197 -13 200 0
-197 13 200 0
200 -198 201 0
-200 -201 0
198 -201 0
199 201 -1 0
-199 1 0
-201 1 0
-12 8 202 0
12 -202 0
-8 -202 0
-13 8 203 0
13 -203 0
-8 -203 0
-14 -8 204 0
14 -204 0
8 -204 0
-15 -8 205 0
15 -205 0
8 -205 0
202 204 -206 0
-202 206 0
-204 206 0
203 205 -207 0
-203 207 0
-205 207 0
-12 -3 208 0
12 -208 0
3 -208 0
-13 -3 209 0
13 -209 0
3 -209 0
-14 3 210 0
14 -210 0
-3 -210 0
-15 3 211 0
15 -211 0
-3 -211 0
208 210 -212 0
-208 212 0
-210 212 0
209 211 -213 0
-209 213 0
-211 213 0
206 212 -214 0
-206 214 0
-212 214 0
207 213 -215 0
-207 215 0
-213 215 0
-214 12 -216 0
214 216 0
-12 216 0
215 -13 217 0
-215 -217 0
13 -217 0
215 13 -218 0
-215 -13 -218 0
215 -13 218 0
-215 13 218 0
218 -216 219 0
-218 -219 0
216 -219 0
217 219 -1 0
-217 1 0
-219 1 0
-12 -10 220 0
12 -220 0
10 -220 0
-13 -10 221 0
13 -221 0
10 -221 0
-14 10 222 0
14 -222 0
-10 -222 0
-15 10 223 0
15 -223 0
-10 -223 0
220 222 -224 0
-220 224 0
-222 224 0
221 223 -225 0
-221 225 0
-223 225 0
-12 5 226 0
12 -226 0
-5 -226 0
-13 5 227 0
13 -227 0
-5 -227 0
-14 -5 228 0
14 -228 0
5 -228 0
-15 -5 229 0
15 -229 0
5 -229 0
226 228 -230 0
-226 230 0
-228 230 0
227 229 -231 0
-227 231 0
-229 231 0
224 230 -232 0
-224 232 0
-230 232 0
225 231 -233 0
-225 233 0
-231 233 0
-232 12 -234 0
232 234 0
-12 234 0
233 -13 235 0
-233 -235 0
13 -235 0
233 13 -236 0
-233 -13 -236 0
233 -13 236 0
-233 13 236 0
236 -234 237 0
-236 -237 0
234 -237 0
235 237 -1 0
-235 1 0
-237 1 0
-12 -2 238 0
12 -238 0
2 -238 0
-13 -2 239 0
13 -239 0
2 -239 0
-14 2 240 0
14 -240 0
-2 -240 0
-15 2 241 0
15 -241 0
-2 -241 0
238 240 -242 0
-238 242 0
-240 242 0
239 241 -243 0
-239 243 0
-241 243 0
-12 -11 244 0
12 -244 0
11 -244 0
-13 -11 245 0
13 -245 0
11 -245 0
-14 11 246 0
14 -246 0
-11 -246 0
-15 11 247 0
15 -247 0
-11 -247 0
244 246 -248 0
-244 248 0
-246 248 0
245 247 -249 0
-245 249 0
-247 249 0
242 248 -250 0
-242 250 0
-248 250 0
243 249 -251 0
-243 251 0
-249 251 0
-250 12 -252 0
250 252 0
-12 252 0
251 -13 253 0
-251 -253 0
13 -253 0
251 13 -254 0
-251 -13 -254 0
251 -13 254 0
-251 13 254 0
254 -252 255 0
-254 -255 0
252 -255 0
253 255 -1 0
-253 1 0
-255 1 0
-12 -4 256 0
12 -256 0
4 -256 0
-13 -4 257 0
13 -257 0
4 -257 0
-14 4 258 0
14 -258 0
-4 -258 0
-15 4 259 0
15 -259 0
-4 -259 0
256 258 -260 0
-256 260 0
-258 260 0
257 259 -261 0
-257 261 0
-259 261 0
-12 5 262 0
12 -262 0
-5 -262 0
-13 5 263 0
13 -263 0
-5 -263 0
-14 -5 264 0
14 -264 0
5 -264 0
-15 -5 265 0
15 -265 0
5 -265 0
262 264 -266 0
-262 266 0
-264 266 0
263 265 -267 0
-263 267 0
-265 267 0
260 266 -268 0
-260 268 0
-266 268 0
261 267 -269 0
-261 269 0
-267 269 0
-268 12 -270 0
268 270 0
-12 270 0
269 -13 271 0
-269 -271 0
13 -271 0
269 13 -272 0
-269 -13 -272 0
269 -13 272 0
-269 13 272 0
272 -270 273 0
-272 -273 0
270 -273 0
271 273 -1 0
-271 1 0
-273 1 0
-12 8 274 0
12 -274 0
-8 -274 0
-13 8 275 0
13 -275 0
-8 -275 0
-14 -8 276 0
14 -276 0
8 -276 0
-15 -8 277 0
15 -277 0
8 -277 0
274 276 -278 0
-274 278 0
-276 278 0
275 277 -279 0
-275 279 0
-277 279 0
-12 6 280 0
12 -280 0
-6 -280 0
-13 6 281 0
13 -281 0
-6 -281 0
-14 -6 282 0
14 -282 0
6 -282 0
-15 -6 283 0
15 -283 0
6 -283 0
280 282 -284 0
-280 284 0
-282 284 0
281 283 -285 0
-281 285 0
-283 285 0
278 284 -286 0
-278 286 0
-284 286 0
279 285 -287 0
-279 287 0
-285 287 0
-286 12 -288 0
286 288 0
-12 288 0
287 -13 289 0
-287 -289 0
13 -289 0
287 13 -290 0
-287 -13 -290 0
287 -13 290 0
-287 13 290 0
290 -288 291 0
-290 -291 0
288 -291 0
289 291 -1 0
-289 1 0
-291 1 0
-12 7 292 0
12 -292 0
-7 -292 0
-13 7 293 0
13 -293 0
-7 -293 0
-14 -7 294 0
14 -294 0
7 -294 0
-15 -7 295 0
15 -295 0
7 -295 0
292 294 -296 0
-292 296 0
-294 296 0
293 295 -297 0
-293 297 0
-295 297 0
-12 -4 298 0
12 -298 0
4 -298 0
-13 -4 299 0
13 -299 0
4 -299 0
-14 4 300 0
14 -300 0
-4 -300 0
-15 4 301 0
15 -301 0
-4 -301 0
298 300 -302 0
-298 302 0
-300 302 0
299 301 -303 0
-299 303 0
-301 303 0
296 302 -304 0
-296 304 0
-302 304 0
297 303 -305 0
-297 305 0
-303 305 0
-304 12 -306 0
304 306 0
-12 306 0
305 -13 307 0
-305 -307 0
13 -307 0
305 13 -308 0
-305 -13 -308 0
305 -13 308 0
-305 13 308 0
308 -306 309 0
-308 -309 0
306 -309 0
307 309 -1 0
-307 1 0
-309 1 0
-12 -11 310 0
12 -310 0
11 -310 0
-13 -11 311 0
13 -311 0
11 -311 0
-14 11 312 0
14 -312 0
-11 -312 0
-15 11 313 0
15 -313 0
-11 -313 0
310 312 -314 0
-310 314 0
-312 314 0
311 313 -315 0
-311 315 0
-313 315 0
-12 8 316 0
12 -316 0
-8 -316 0
-13 8 317 0
13 -317 0
-8 -317 0
-14 -8 318 0
14 -318 0
8 -318 0
-15 -8 319 0
15 -319 0
8 -319 0
316 318 -320 0
-316 320 0
-318 320 0
317 319 -321 0
-317 321 0
-319 321 0
314 320 -322 0
-314 322 0
-320 322 0
315 321 -323 0
-315 323 0
-321 323 0
-322 12 -324 0
322 324 0
-12 324 0
323 -13 325 0
-323 -325 0
13 -325 0
323 13 -326 0
-323 -13 -326 0
323 -13 326 0
-323 13 326 0
326 -324 327 0
-326 -327 0
324 -327 0
325 327 -1 0
-325 1 0
-327 1 0
-12 -2 328 0
12 -328 0
2 -328 0
-13 -2 329 0
13 -329 0
2 -329 0
-14 2 330 0
14 -330 0
-2 -330 0
-15 2 331 0
15 -331 0
-2 -331 0
328 330 -332 0
-328 332 0
-330 332 0
329 331 -333 0
-329 333 0
-331 333 0
-12 8 334 0
12 -334 0
-8 -334 0
-13 8 335 0
13 -335 0
-8 -335 0
-14 -8 336 0
14 -336 0
8 -336 0
-15 -8 337 0
15 -337 0
8 -337 0
334 336 -338 0
-334 338 0
-336 338 0
335 337 -339 0
-335 339 0
-337 339 0
332 338 -340 0
-332 340 0
-338 340 0
333 339 -341 0
-333 341 0
-339 341 0
-340 12 -342 0
340 342 0
-12 342 0
341 -13 343 0
-341 -343 0
13 -343 0
341 13 -344 0
-341 -13 -344 0
341 -13 344 0
-341 13 344 0
344 -342 345 0
-344 -345 0
342 -345 0
343 345 -1 0
-343 1 0
-345 1 0
-12 9 346 0
12 -346 0
-9 -346 0
-13 9 347 0
13 -347 0
-9 -347 0
-14 -9 348 0
14 -348 0
9 -348 0
-15 -9 349 0
15 -349 0
9 -349 0
346 348 -350 0
-346 350 0
-348 350 0
347 349 -351 0
-347 351 0
-349 351 0
-12 -4 352 0
12 -352 0
4 -352 0
-13 -4 353 0
13 -353 0
4 -353 0
-14 4 354 0
14 -354 0
-4 -354 0
-15 4 355 0
15 -355 0
-4 -355 0
352 354 -356 0
-352 356 0
-354 356 0
353 355 -357 0
-353 357 0
-355 357 0
350 356 -358 0
-350 358 0
-356 358 0
351 357 -359 0
-351 359 0
-357 359 0
-358 12 -360 0
358 360 0
-12 360 0
359 -13 361 0
-359 -361 0
13 -361 0
359 13 -362 0
-359 -13 -362 0
359 -13 362 0
-359 13 362 0
362 -360 363 0
-362 -363 0
360 -363 0
361 363 -1 0
-361 1 0
-363 1 0
-12 -3 364 0
12 -364 0
3 -364 0
-13 -3 365 0
13 -365 0
3 -365 0
-14 3 366 0
14 -366 0
-3 -366 0
-15 3 367 0
15 -367 0
-3 -367 0
364 366 -368 0
-364 368 0
-366 368 0
365 367 -369 0
-365 369 0
-367 369 0
-12 -11 370 0
12 -370 0
11 -370 0
-13 -11 371 0
13 -371 0
11 -371 0
-14 11 372 0
14 -372 0
-11 -372 0
-15 11 373 0
15 -373 0
-11 -373 0
370 372 -374 0
-370 374 0
-372 374 0
371 373 -375 0
-371 375 0
-373 375 0
368 374 -376 0
-368 376 0
-374 376 0
369 375 -377 0
-369 377 0
-375 377 0
-376 12 -378 0
376 378 0
-12 378 0
377 -13 379 0
-377 -379 0
13 -379 0
377 13 -380 0
-377 -13 -380 0
377 -13 380 0
-377 13 380 0
380 -378 381 0
-380 -381 0
378 -381 0
379 381 -1 0
-379 1 0
-381 1 0
-12 -2 382 0
12 -382 0
2 -382 0
-13 -2 383 0
13 -383 0
2 -383 0
-14 2 384 0
14 -384 0
-2 -384 0
-15 2 385 0
15 -385 0
-2 -385 0
382 384 -386 0
-382 386 0
-384 386 0
383 385 -387 0
-383 387 0
-385 387 0
-12 6 388 0
12 -388 0
-6 -388 0
-13 6 389 0
13 -389 0
-6 -389 0
-14 -6 390 0
14 -390 0
6 -390 0
-15 -6 391 0
15 -391 0
6 -391 0
388 390 -392 0
-388 392 0
-390 392 0
389 391 -393 0
-389 393 0
-391 393 0
386 392 -394 0
-386 394 0
-392 394 0
387 393 -395 0
-387 395 0
-393 395 0
-394 12 -396 0
394 396 0
-12 396 0
395 -13 397 0
-395 -397 0
13 -397 0
395 13 -398 0
-395 -13 -398 0
395 -13 398 0
-395 13 398 0
398 -396 399 0
-398 -399 0
396 -399 0
397 399 -1 0
-397 1 0
-399 1 0
-12 -8 400 0
12 -400 0
8 -400 0
-13 -8 401 0
13 -401 0
8 -401 0
-14 8 402 0
14 -402 0
-8 -402 0
-15 8 403 0
15 -403 0
-8 -403 0
400 402 -404 0
-400 404 0
-402 404 0
401 403 -405 0
-401 405 0
-403 405 0
-12 2 406 0
12 -406 0
-2 -406 0
-13 2 407 0
13 -407 0
-2 -407 0
-14 -2 408 0
14 -408 0
2 -408 0
-15 -2 409 0
15 -409 0
2 -409 0
406 408 -410 0
-406 410 0
-408 410 0
407 409 -411 0
-407 411 0
-409 411 0
404 410 -412 0
-404 412 0
-410 412 0
405 411 -413 0
-405 413 0
-411 413 0
-12 10 414 0
12 -414 0
-10 -414 0
-13 10 415 0
13 -415 0
-10 -415 0
-14 -10 416 0
14 -416 0
10 -416 0
-15 -10 417 0
15 -417 0
10 -417 0
414 416 -418 0
-414 418 0
-416 418 0
415 417 -419 0
-415 419 0
-417 419 0
412 418 -420 0
-412 420 0
-418 420 0
413 419 -421 0
-413 421 0
-419 421 0
-12 -7 422 0
12 -422 0
7 -422 0
-13 -7 423 0
13 -423 0
7 -423 0
-14 7 424 0
14 -424 0
-7 -424 0
-15 7 425 0
15 -425 0
-7 -425 0
422 424 -426 0
-422 426 0
-424 426 0
423 425 -427 0
-423 427 0
-425 427 0
420 426 -428 0
-420 428 0
-426 428 0
421 427 -429 0
-421 429 0
-427 429 0
-12 4 430 0
12 -430 0
-4 -430 0
-13 4 431 0
13 -431 0
-4 -431 0
-14 -4 432 0
14 -432 0
4 -432 0
-15 -4 433 0
15 -433 0
4 -433 0
430 432 -434 0
-430 434 0
-432 434 0
431 433 -435 0
-431 435 0
-433 435 0
428 434 -436 0
-428 436 0
-434 436 0
429 435 -437 0
-429 437 0
-435 437 0
-436 12 -438 0
436 438 0
-12 438 0
437 -13 439 0
-437 -439 0
13 -439 0
437 13 -440 0
-437 -13 -440 0
437 -13 440 0
-437 13 440 0
440 -438 441 0
-440 -441 0
438 -441 0
439 441 -1 0
-439 1 0
-441 1 0
-12 -10 442 0
12 -442 0
10 -442 0
-13 -10 443 0
13 -443 0
10 -443 0
-14 10 444 0
14 -444 0
-10 -444 0
-15 10 445 0
15 -445 0
-10 -445 0
442 444 -446 0
-442 446 0
-444 446 0
443 445 -447 0
-443 447 0
-445 447 0
-12 7 448 0
12 -448 0
-7 -448 0
-13 7 449 0
13 -449 0
-7 -449 0
-14 -7 450 0
14 -450 0
7 -450 0
-15 -7 451 0
15 -451 0
7 -451 0
448 450 -452 0
-448 452 0
-450 452 0
449 451 -453 0
-449 453 0
-451 453 0
446 452 -454 0
-446 454 0
-452 454 0
447 453 -455 0
-447 455 0
-453 455 0
-454 12 -456 0
454 456 0
-12 456 0
455 -13 457 0
-455 -457 0
13 -457 0
455 13 -458 0
-455 -13 -458 0
455 -13 458 0
-455 13 458 0
458 -456 459 0
-458 -459 0
456 -459 0
457 459 -1 0
-457 1 0
-459 1 0
-12 -9 460 0
12 -460 0
9 -460 0
-13 -9 461 0
13 -461 0
9 -461 0
-14 9 462 0
14 -462 0
-9 -462 0
-15 9 463 0
15 -463 0
-9 -463 0
460 462 -464 0
-460 464 0
-462 464 0
461 463 -465 0
-461 465 0
-463 465 0
-12 11 466 0
12 -466 0
-11 -466 0
-13 11 467 0
13 -467 0
-11 -467 0
-14 -11 468 0
14 -468 0
11 -468 0
-15 -11 469 0
15 -469 0
11 -469 0
466 468 -470 0
-466 470 0
-468 470 0
467 469 -471 0
-467 471 0
-469 471 0
464 470 -472 0
-464 472 0
-470 472 0
465 471 -473 0
-465 473 0
-471 473 0
-12 -6 474 0
12 -474 0
6 -474 0
-13 -6 475 0
13 -475 0
6 -475 0
-14 6 476 0
14 -476 0
-6 -476 0
-15 6 477 0
15 -477 0
-6 -477 0
474 476 -478 0
-474 478 0
-476 478 0
475 477 -479 0
-475 479 0
-477 479 0
472 478 -480 0
-472 480 0
-478 480 0
473 479 -481 0
-473 481 0
-479 481 0
-12 -5 482 0
12 -482 0
5 -482 0
-13 -5 483 0
13 -483 0
5 -483 0
-14 5 484 0
14 -484 0
-5 -484 0
-15 5 485 0
15 -485 0
-5 -485 0
482 484 -486 0
-482 486 0
-484 486 0
483 485 -487 0
-483 487 0
-485 487 0
480 486 -488 0
-480 488 0
-486 488 0
481 487 -489 0
-481 489 0
-487 489 0
-12 3 490 0
12 -490 0
-3 -490 0
-13 3 491 0
13 -491 0
-3 -491 0
-14 -3 492 0
14 -492 0
3 -492 0
-15 -3 493 0
15 -493 0
3 -493 0
490 492 -494 0
-490 494 0
-492 494 0
491 493 -495 0
-491 495 0
-493 495 0
488 494 -496 0
-488 496 0
-494 496 0
489 495 -497 0
-489 497 0
-495 497 0
-496 12 -498 0
496 498 0
-12 498 0
497 -13 499 0
-497 -499 0
13 -499 0
497 13 -500 0
-497 -13 -500 0
497 -13 500 0
-497 13 500 0
500 -498 501 0
-500 -501 0
498 -501 0
499 501 -1 0
-499 1 0
-501 1 0
-12 -5 502 0
12 -502 0
5 -502 0
-13 -5 503 0
13 -503 0
5 -503 0
-14 5 504 0
14 -504 0
-5 -504 0
-15 5 505 0
15 -505 0
-5 -505 0
502 504 -506 0
-502 506 0
-504 506 0
503 505 -507 0
-503 507 0
-505 507 0
-12 -8 508 0
12 -508 0
8 -508 0
-13 -8 509 0
13 -509 0
8 -509 0
-14 8 510 0
14 -510 0
-8 -510 0
-15 8 511 0
15 -511 0
-8 -511 0
508 510 -512 0
-508 512 0
-510 512 0
509 511 -513 0
-509 513 0
-511 513 0
506 512 -514 0
-506 514 0
-512 514 0
507 513 -515 0
-507 515 0
-513 515 0
-12 2 516 0
12 -516 0
-2 -516 0
-13 2 517 0
13 -517 0
-2 -517 0
-14 -2 518 0
14 -518 0
2 -518 0
-15 -2 519 0
15 -519 0
2 -519 0
516 518 -520 0
-516 520 0
-518 520 0
517 519 -521 0
-517 521 0
-519 521 0
514 520 -522 0
-514 522 0
-520 522 0
515 521 -523 0
-515 523 0
-521 523 0
-12 -9 524 0
12 -524 0
9 -524 0
-13 -9 525 0
13 -525 0
9 -525 0
-14 9 526 0
14 -526 0
-9 -526 0
-15 9 527 0
15 -527 0
-9 -527 0
524 526 -528 0
-524 528 0
-526 528 0
525 527 -529 0
-525 529 0
-527 529 0
522 528 -530 0
-522 530 0
-528 530 0
523 529 -531 0
-523 531 0
-529 531 0
-12 3 532 0
12 -532 0
-3 -532 0
-13 3 533 0
13 -533 0
-3 -533 0
-14 -3 534 0
14 -534 0
3 -534 0
-15 -3 535 0
15 -535 0
3 -535 0
532 534 -536 0
-532 536 0
-534 536 0
533 535 -537 0
-533 537 0
-535 537 0
530 536 -538 0
-530 538 0
-536 538 0
531 537 -539 0
-531 539 0
-537 539 0
-538 12 -540 0
538 540 0
-12 540 0
539 -13 541 0
-539 -541 0
13 -541 0
539 13 -542 0
-539 -13 -542 0
539 -13 542 0
-539 13 542 0
542 -540 543 0
-542 -543 0
540 -543 0
541 543 -1 0
-541 1 0
-543 1 0
1 2 -3 -4 -5 -6 -7 -8 -9 10 11 12 13 -14 15 16 17 18 19 20 21 22 23 24 25 26 27 28 29 30 31 32 33 34 35 36 37 38 39 40 41 42 43 44 45 46 47 -48 49 -50 51 -52 53 54 55 56 57 58 59 -60 61 -62 63 64 65 -66 67 -68 69 -70 71 72 73 74 75 76 77 -78 79 -80 81 82 83 -84 85 -86 87 -88 89 90 91 92 93 94 95 -96 97 -98 99 100 101 -102 103 -104 105 -106 107 108 109 110 111 112 113 -114 115 -116 117 118 119 -120 121 -122 123 -124 125 126 127 128 129 130 131 -132 133 -134 135 136 137 138 139 140 141 -142 143 144 145 146 147 148 149 150 151 152 153 154 155 -156 157 -158 159 -160 161 162 163 164 165 166 167 -168 169 -170 171 172 173 -174 175 -176 177 -178 179 180 181 182 183 184 185 186 187 188 189 190 191 -192 193 -194 195 -196 197 198 199 200 201 202 203 -204 205 -206 207 208 209 210 211 212 213 -214 215 216 217 218 219 220 221 -222 223 -224 225 226 227 -228 229 -230 231 -232 233 234 235 236 237 238 239 -240 241 -242 243 244 245 -246 247 -248 249 -250 251 252 253 254 255 256 257 258 259 260 261 262 263 -264 265 -266 267 -268 269 270 271 272 273 274 275 -276 277 -278 279 280 281 -282 283 -284 285 -286 287 288 289 290 291 292 293 -294 295 -296 297 298 299 300 301 302 303 -304 305 306 307 308 309 310 311 -312 313 -314 315 316 317 -318 319 -320 321 -322 323 324 325 326 327 328 329 -330 331 -332 333 334 335 -336 337 -338 339 -340 341 342 343 344 345 346 347 -348 349 -350 351 352 353 354 355 356 357 -358 359 360 361 362 363 364 365 366 367 368 369 370 371 -372 373 -374 375 -376 377 378 379 380 381 382 383 -384 385 -386 387 388 389 -390 391 -392 393 -394 395 396 397 398 399 400 401 402 403 404 405 406 407 408 409 410 411 412 413 414 415 416 417 418 419 420 421 422 423 424 425 426 427 428 429 430 431 -432 433 -434 435 -436 437 438 439 440 441 442 443 -444 445 -446 447 448 449 -450 451 -452 453 -454 455 456 457 458 459 460 461 462 463 464 465 466 467 468 469 470 471 472 473 474 475 476 477 478 479 480 481 482 483 484 485 486 487 488 489 490 491 -492 493 -494 495 -496 497 498 499 500 501 502 503 504 505 506 507 508 509 510 511 512 513 514 515 516 517 518 519 520 521 522 523 524 525 526 527 528 529 530 531 532 533 -534 535 -536 537 -538 539 540 541 542 543 0
